16 3 0 8 1 18 17 5 15 14 13 9 11 19 4 6 7 10 12 2
14 8 1 0 16 17 5 15 11 4 18 3 13 6 7 12 9 10 2 19
0 1 8 15 3 9 16 17 5 13 14 18 11 19 2 6 4 10 7 12
4 16 8 1 15 0 17 3 5 18 14 11 7 13 10 6 12 9 19 2
16 8 5 1 0 11 17 18 14 15 3 6 4 13 10 7 19 2 9 12
8 0 17 15 3 5 11 14 4 1 10 16 9 18 7 13 6 12 19 2
8 16 17 18 1 0 14 5 13 3 11 15 9 6 10 4 19 7 2 12
0 8 1 5 16 18 17 11 3 13 4 6 15 10 9 2 7 12 14 19
0 1 16 5 8 17 11 14 3 13 6 7 4 18 9 10 2 19 12 15
8 1 17 16 0 14 15 18 5 11 3 4 13 6 12 19 2 7 10 9